Minimize

5 x_0_0 + 15 x_0_1 + 15 x_0_2 + 18 x_0_3 + 65 x_1_0 + 65 x_1_1 + 30 x_1_2 + 30 x_1_3 + 60 x_2_0 + 50 x_2_1 + 50 x_2_2 + 40 x_2_3


Subject To

a0: x_0_0 + x_1_0 + x_2_0 <= 100
a1: x_0_1 + x_1_1 + x_2_1 <= 30
a2: x_0_2 + x_1_2 + x_2_2 <= 30
a3: x_0_3 + x_1_3 + x_2_3 <= 50
b0: x_0_0 + x_0_1 + x_0_2 + x_0_3 >= 100
b1: x_1_0 + x_1_1 + x_1_2 + x_1_3 >= 20
b2: x_2_0 + x_2_1 + x_2_2 + x_2_3 >= 10





General

 x_0_0 x_0_1 x_0_2 x_0_3 x_1_0 x_1_1 x_1_2 x_1_3 x_2_0 x_2_1 x_2_2 x_2_3



End
